# Solution for model GasLib-40
# Objective value = 4.3910472053404085e+01
loadshed[innode_1] 0
loadshed[innode_2] 0
loadshed[innode_3] 0
loadshed[innode_4] 0
loadshed[innode_5] 0
loadshed[innode_6] 0
loadshed[innode_7] 0
loadshed[innode_8] 0
loadshed[source_1] -2.2972695662426834e-01
loadshed[source_2] 1.5195592173982664e-01
loadshed[source_3] 3.5552671139155712e-01
loadshed[sink_1] 0
loadshed[sink_2] 0
loadshed[sink_3] 0
loadshed[sink_4] 0
loadshed[sink_5] 0
loadshed[sink_6] 0
loadshed[sink_7] 0
loadshed[sink_8] 0
loadshed[sink_9] 0
loadshed[sink_10] 0
loadshed[sink_11] 0
loadshed[sink_12] 1
loadshed[sink_13] 0
loadshed[sink_14] 0
loadshed[sink_15] 0
loadshed[sink_16] 0
loadshed[sink_17] 0
loadshed[sink_18] 0
loadshed[sink_19] 0
loadshed[sink_20] 0
loadshed[sink_21] 1
loadshed[sink_22] 0
loadshed[sink_23] 0
loadshed[sink_24] 0.684971539571205
loadshed[sink_25] 0
loadshed[sink_26] 0
loadshed[sink_27] 0
loadshed[sink_28] 0
loadshed[sink_29] 0
flow[source_1,sink_3] 1.9440787616355186e+02
flow[innode_1,sink_16] 1.6354166666666970e+01
flow[innode_6,sink_13] 1.2594205450213572e+01
flow[sink_13,sink_14] -3.7599612164530960e+00
flow[sink_14,sink_10] -2.0114127883119636e+01
flow[sink_25,sink_26] 1.2223168652150308e+02
flow[sink_26,sink_9] 1.6354166666669244e+01
flow[sink_9,sink_18] 0
flow[sink_26,sink_4] 8.9523353188167164e+01
flow[sink_4,sink_20] -1.5224899222362144e+01
flow[sink_18,sink_6] -1.6354166666667879e+01
flow[sink_25,innode_8] -1.6169954283021551e+02
flow[sink_6,sink_7] -6.5416666666666671e+01
flow[sink_6,sink_22] 3.2708333333333641e+01
flow[sink_7,sink_24] 5.15202794659592
flow[sink_22,sink_1] 1.6354166666666970e+01
flow[sink_24,sink_21] 0
flow[sink_21,sink_12] 0
flow[sink_7,sink_5] -8.6922861279930771e+01
flow[sink_5,sink_17] -1.0327702794659744e+02
flow[sink_17,sink_4] -8.8394085743862632e+01
flow[sink_17,sink_8] -3.1237108869401478e+01
flow[sink_3,sink_23] 16.3541666666697
flow[sink_8,sink_20] -4.7591275536068146e+01
flow[sink_25,sink_20] 7.9170341425097035e+01
flow[sink_25,sink_15] -6.8650857233265313e+01
flow[sink_15,sink_29] -1.0135919056661623e+02
flow[sink_29,sink_28] 1.6354166666667879e+01
flow[sink_29,sink_2] 0
flow[sink_2,sink_15] -1.6354166666684250e+01
flow[sink_29,innode_7] -1.3406752389995032e+02
flow[innode_4,sink_19] 1.0188496121646668e+02
flow[sink_19,innode_3] 3.3757902412575163e+01
flow[innode_4,innode_5] 0
flow[sink_27,innode_5] 0
flow[sink_27,sink_19] -1.6354166666679703e+01
flow[sink_10,sink_11] 3.2708333333333641e+01
flow[sink_10,innode_2] -3.5418725470545148e+01
flow[sink_10,innode_3] -3.3757902412575163e+01
flow[innode_6,sink_25] -1.2594205450213572e+01
flow[sink_11,innode_1] 1.6354166666666970e+01
flow[sink_19,innode_2] 3.5418725470545148e+01
flow[source_3,innode_4] 1.0188496121646668e+02
flow[source_2,innode_7] 1.3406752389995032e+02
flow[sink_3,innode_8] 1.6169954283021551e+02
pressure[innode_1] 7.4861903383911113e+01
pressure[innode_2] 7.6885630616760139e+01
pressure[innode_3] 7.6810877564535247e+01
pressure[innode_4] 81.01325
pressure[innode_5] 7.6534500619616637e+01
pressure[innode_6] 7.4124935664900349e+01
pressure[innode_7] 81.01325
pressure[innode_8] 80.3634187364858
pressure[source_1] 81.01325
pressure[source_2] 81.01325
pressure[source_3] 81.01325
pressure[sink_1] 3.9128456013585069e+00
pressure[sink_2] 7.4404566467609484e+01
pressure[sink_3] 80.3634187364858
pressure[sink_4] 5.4133998944754637e+01
pressure[sink_5] 4.3062476383890029e+01
pressure[sink_6] 6.0139232117458805e+00
pressure[sink_7] 6.9119381153460715e+00
pressure[sink_8] 51.934525727768
pressure[sink_9] 64.5373906819372
pressure[sink_10] 7.5013604691514658e+01
pressure[sink_11] 7.4861903383911113e+01
pressure[sink_12] 1.01325
pressure[sink_13] 7.4055505914940568e+01
pressure[sink_14] 74.0622346858153
pressure[sink_15] 7.4457959217375929e+01
pressure[sink_16] 7.3840253549093433e+01
pressure[sink_17] 50.7558684581122
pressure[sink_18] 5.5772182689926408e+00
pressure[sink_19] 7.6885630616760139e+01
pressure[sink_20] 5.5250968343624869e+01
pressure[sink_21] 1.01325
pressure[sink_22] 4.9766147437135171e+00
pressure[sink_23] 8.0198700724826011e+01
pressure[sink_24] 1.01325
pressure[sink_25] 7.4124935664900349e+01
pressure[sink_26] 6.5516229765879615e+01
pressure[sink_27] 7.6534500619616637e+01
pressure[sink_28] 7.7132186670980616e+01
pressure[sink_29] 7.7427468944597791e+01
interdiction[source_1,sink_3] 0
interdiction[innode_1,sink_16] 0
interdiction[innode_6,sink_13] 0
interdiction[sink_13,sink_14] 0
interdiction[sink_14,sink_10] 0
interdiction[sink_25,sink_26] 0
interdiction[sink_26,sink_9] 0
interdiction[sink_9,sink_18] 1
interdiction[sink_26,sink_4] 0
interdiction[sink_4,sink_20] 0
interdiction[sink_18,sink_6] 0
interdiction[sink_25,innode_8] 0
interdiction[sink_6,sink_7] 0
interdiction[sink_6,sink_22] 0
interdiction[sink_7,sink_24] 0
interdiction[sink_22,sink_1] 0
interdiction[sink_24,sink_21] 0
interdiction[sink_21,sink_12] 0
interdiction[sink_7,sink_5] 0
interdiction[sink_5,sink_17] 0
interdiction[sink_17,sink_4] 0
interdiction[sink_17,sink_8] 0
interdiction[sink_3,sink_23] 0
interdiction[sink_8,sink_20] 0
interdiction[sink_25,sink_20] 0
interdiction[sink_25,sink_15] 0
interdiction[sink_15,sink_29] 0
interdiction[sink_29,sink_28] 0
interdiction[sink_29,sink_2] 1
interdiction[sink_2,sink_15] 0
interdiction[sink_29,innode_7] 0
interdiction[innode_4,sink_19] 0
interdiction[sink_19,innode_3] 0
interdiction[innode_4,innode_5] 1
interdiction[sink_27,innode_5] 0
interdiction[sink_27,sink_19] 0
interdiction[sink_10,sink_11] 0
interdiction[sink_10,innode_2] 0
interdiction[sink_10,innode_3] 0
interdiction[innode_6,sink_25] 0
interdiction[sink_11,innode_1] 0
interdiction[sink_19,innode_2] 0
interdiction[source_3,innode_4] 0
interdiction[source_2,innode_7] 0
interdiction[sink_3,innode_8] 0
WCcheckFlow[source_1,sink_3] 39
WCcheckFlow[innode_1,sink_16] 1
WCcheckFlow[innode_6,sink_13] 13
WCcheckFlow[sink_13,sink_14] 12
WCcheckFlow[sink_14,sink_10] 11
WCcheckFlow[sink_25,sink_26] 15
WCcheckFlow[sink_26,sink_9] 1
WCcheckFlow[sink_9,sink_18] 0
WCcheckFlow[sink_26,sink_4] 13
WCcheckFlow[sink_4,sink_20] 1
WCcheckFlow[sink_18,sink_6] -1
WCcheckFlow[sink_25,innode_8] -36
WCcheckFlow[sink_6,sink_7] -4
WCcheckFlow[sink_6,sink_22] 2
WCcheckFlow[sink_7,sink_24] 3
WCcheckFlow[sink_22,sink_1] 1
WCcheckFlow[sink_24,sink_21] 2
WCcheckFlow[sink_21,sink_12] 1
WCcheckFlow[sink_7,sink_5] -8
WCcheckFlow[sink_5,sink_17] -9
WCcheckFlow[sink_17,sink_4] -11
WCcheckFlow[sink_17,sink_8] 1
WCcheckFlow[sink_3,sink_23] 1
WCcheckFlow[sink_8,sink_20] 0
WCcheckFlow[sink_25,sink_20] 0
WCcheckFlow[sink_25,sink_15] 6
WCcheckFlow[sink_15,sink_29] 4
WCcheckFlow[sink_29,sink_28] 1
WCcheckFlow[sink_29,sink_2] 0
WCcheckFlow[sink_2,sink_15] -1
WCcheckFlow[sink_29,innode_7] 2
WCcheckFlow[innode_4,sink_19] -2
WCcheckFlow[sink_19,innode_3] -5
WCcheckFlow[innode_4,innode_5] 0
WCcheckFlow[sink_27,innode_5] 1
WCcheckFlow[sink_27,sink_19] -2
WCcheckFlow[sink_10,sink_11] 3
WCcheckFlow[sink_10,innode_2] 1
WCcheckFlow[sink_10,innode_3] 6
WCcheckFlow[innode_6,sink_25] -14
WCcheckFlow[sink_11,innode_1] 2
WCcheckFlow[sink_19,innode_2] 0
WCcheckFlow[source_3,innode_4] -1
WCcheckFlow[source_2,innode_7] -1
WCcheckFlow[sink_3,innode_8] 37
